16 16
3 4
6 6
1 2
9 3
10 7
6 8
10 6
1 7
5 9
5 3
4 3
2 6
9 3
5 7
1 1
2 5
11 17 94
17 14 75
10 17 52
11 12 60
14 12 51
20 17 97
17 10 94
16 20 68
11 10 60
11 20 82
10 16 90
13 14 72
18 13 69
20 16 62
18 11 80
16 15 79
